CMPL model generation - running

CMPL version: 1.11.0
Authors: Thomas Schleiff, Mike Steglich
Distributed under the GPLv3 

create model instance ...
write model instance ...
CMPL model generation - finished

Solver - running


Welcome to IBM(R) ILOG(R) CPLEX(R) Interactive Optimizer 12.7.1.0
  with Simplex, Mixed Integer & Barrier Optimizers
5725-A06 5725-A29 5724-Y48 5724-Y49 5724-Y54 5724-Y55 5655-Y21
Copyright IBM Corp. 1988, 2017.  All Rights Reserved.

Type 'help' for a list of available commands.
Type 'help' followed by a command name for more
information on commands.

CPLEX> Specified objective sense: MINIMIZE
Selected objective  name:  line[1]
Selected RHS        name:  RHS
Selected bound      name:  BOUND
Problem '/tmp/cmpl.T24631.mps' read.
Read time = 0.06 sec. (10.14 ticks)
CPLEX> CPXPARAM_Read_APIEncoding                        "UTF-8"
Tried aggregator 3 times.
MIP Presolve eliminated 23787 rows and 37150 columns.
MIP Presolve modified 425 coefficients.
Aggregator did 955 substitutions.
Reduced MIP has 3180 rows, 4350 columns, and 12866 nonzeros.
Reduced MIP has 4140 binaries, 0 generals, 0 SOSs, and 0 indicators.
Presolve time = 0.06 sec. (50.77 ticks)
Found incumbent of value 2312.111700 after 0.12 sec. (90.77 ticks)
Probing fixed 31 vars, tightened 0 bounds.
Probing time = 0.01 sec. (5.77 ticks)
Tried aggregator 1 time.
MIP Presolve eliminated 0 rows and 31 columns.
MIP Presolve modified 215 coefficients.
Reduced MIP has 3180 rows, 4319 columns, and 12804 nonzeros.
Reduced MIP has 4319 binaries, 0 generals, 0 SOSs, and 0 indicators.
Presolve time = 0.02 sec. (10.97 ticks)
Probing time = 0.01 sec. (2.88 ticks)
Clique table members: 7856.
MIP emphasis: balance optimality and feasibility.
MIP search method: dynamic search.
Parallel mode: none, using 1 thread.
Root relaxation solution time = 0.01 sec. (11.12 ticks)

        Nodes                                         Cuts/
   Node  Left     Objective  IInf  Best Integer    Best Bound    ItCnt     Gap

*     0+    0                         2312.1117       -6.0550           100.26%
*     0     0      integral     0      610.1446      610.1446      506    0.00%
Elapsed time = 0.18 sec. (131.43 ticks, tree = 0.00 MB, solutions = 2)

Root node processing (before b&c):
  Real time             =    0.19 sec. (132.96 ticks)
Sequential b&c:
  Real time             =    0.00 sec. (0.00 ticks)
                          ------------
Total (root+branch&cut) =    0.19 sec. (132.96 ticks)

Solution pool: 2 solutions saved.

MIP - Integer optimal solution:  Objective =  6.1014458000e+02
Solution time =    0.19 sec.  Iterations = 506  Nodes = 0
Deterministic time = 133.08 ticks  (710.03 ticks/sec)

CPLEX> Incumbent solution written to file '/tmp/cmpl.T24631.gsol'.
CPLEX> 
CMPL: Time used for model generation: 1 seconds
CMPL: Time used for solving the model: 1 seconds


Solution written to ASCII file: results/output_generated_conf_0.8/2016-08-01-5/fair-nonlinear.sol

Solver - finished
